(set-logic BV) (define-fun origCir ((n23 Bool) (n30 Bool) (n26 Bool) (n52 Bool) (n47 Bool) (n22 Bool)) Bool (and (and (and n52 (not n47)) (not (and (and n30 n26) n23))) n22)) (synth-fun skel ((n23 Bool) (n30 Bool) (n26 Bool) (n52 Bool) (n47 Bool) (n22 Bool)) Bool) (declare-var n23 Bool) (declare-var n30 Bool) (declare-var n26 Bool) (declare-var n52 Bool) (declare-var n47 Bool) (declare-var n22 Bool) (constraint (= (origCir n23 n30 n26 n52 n47 n22) (skel n23 n30 n26 n52 n47 n22))) (check-synth)
